78 61 40 65 47 42 26 76 21 1 8 11 64 12 63 1 13 24 6 60 28 32 18 1 25 7 35 38 3 9 69 44 17 1 37 43 52 4 75 30 1 45 31 79 62 58 20 48 57 70 66 36 27 1 50 74 14 41 22 2 1 54 71 59 51 33 46 23 5 1 68 67 39 77 73 55 34 16 56 10 1 72 15 49 19 80 29 53 1 78 61 40 65 47 42 26 76 21 1  (1041)
Cost 2152.48

